p wcnf 119 178 179 
1 -29 -72 0 
1 -20 69 0 
1 -93 -48 0 
1 100 -73 0 
1 -95 -29 0 
1 -99 -88 0 
1 11 -75 0 
1 90 18 0 
1 37 -46 0 
1 9 22 0 
1 77 -17 0 
1 2 76 0 
1 -45 -87 0 
1 -116 -31 0 
1 50 -23 0 
1 -98 1 0 
1 -42 -24 0 
1 -2 20 0 
1 -46 -20 0 
1 -83 -34 0 
1 -24 -15 0 
1 -60 -76 0 
1 7 -1 0 
1 -66 46 0 
1 -39 92 0 
1 20 -10 0 
1 -59 33 0 
1 91 -53 0 
1 -38 -110 0 
1 12 102 0 
1 -73 -37 0 
1 -6 34 0 
1 70 2 0 
1 66 -26 0 
1 -103 19 0 
1 -71 65 0 
1 39 -8 0 
1 52 3 0 
1 -16 -22 0 
1 -95 112 0 
1 21 105 0 
1 -45 75 0 
1 44 -59 0 
1 -41 46 0 
1 95 -104 0 
1 36 -89 0 
1 117 -83 0 
1 32 -49 0 
1 -109 -25 0 
1 -117 -10 0 
1 53 50 0 
1 -44 89 0 
1 28 21 0 
1 -39 -15 0 
1 69 49 0 
1 -98 -33 0 
1 -16 1 0 
1 101 95 0 
1 71 -102 0 
1 -43 20 0 
1 -57 48 0 
1 38 85 0 
1 64 -30 0 
1 -14 -17 0 
1 50 71 0 
1 99 -81 0 
1 25 -87 0 
1 -82 -102 0 
1 -95 -92 0 
1 -48 -93 0 
1 -101 -11 0 
1 -62 -92 0 
1 -22 -81 0 
1 -4 45 0 
1 -12 -98 0 
1 73 -55 0 
1 26 49 0 
1 61 7 0 
1 -46 88 0 
1 82 -29 0 
1 98 97 0 
1 -44 28 0 
1 -104 80 0 
1 -10 77 0 
1 80 62 0 
1 -43 -108 0 
1 21 100 0 
1 116 80 0 
1 39 33 0 
1 93 -119 0 
1 -83 47 0 
1 113 -25 0 
1 8 52 0 
1 113 -15 0 
1 74 -73 0 
1 36 3 0 
1 1 -19 0 
1 -88 -37 0 
1 -73 -65 0 
1 35 -104 0 
1 -68 -84 0 
1 -44 57 0 
1 -102 -24 0 
1 21 103 0 
1 -7 64 0 
1 -68 11 0 
1 77 30 0 
1 -52 47 0 
1 -40 4 0 
1 -47 81 0 
1 -41 10 0 
1 87 -66 0 
1 -52 57 0 
1 63 -26 0 
1 -6 45 0 
1 88 3 0 
1 -91 46 0 
1 -85 -39 0 
1 -50 35 0 
1 87 97 0 
1 91 29 0 
1 116 89 0 
1 60 -63 0 
1 18 66 0 
1 -119 -62 0 
1 40 -33 0 
1 19 45 0 
1 -15 -61 0 
1 -65 -104 0 
1 -93 -52 0 
1 -43 62 0 
1 44 48 0 
1 92 61 0 
1 -6 -44 0 
1 112 52 0 
1 -108 99 0 
1 -72 42 0 
1 -9 -117 0 
1 73 100 0 
1 -82 -6 0 
1 106 -56 0 
1 50 -22 0 
1 14 34 0 
1 81 114 0 
1 102 -94 0 
1 53 85 0 
1 75 -7 0 
1 -48 -117 0 
1 -113 -108 0 
1 -8 -47 0 
1 58 -38 0 
1 -2 111 0 
1 -15 -33 0 
1 -116 52 0 
1 -11 24 0 
1 -116 82 0 
1 -32 -26 0 
1 67 -87 0 
1 -53 -84 0 
1 29 -27 0 
1 47 46 0 
1 -51 -73 0 
1 -103 -69 0 
1 -46 4 0 
1 64 18 0 
1 103 63 0 
1 -36 100 0 
1 59 87 0 
1 26 77 0 
1 56 44 0 
1 -66 7 0 
1 55 117 0 
1 -40 -22 0 
1 -75 104 0 
1 82 -44 0 
1 15 22 0 
1 -81 -59 0 
1 -88 8 0 
